Version identifier: 20.1.0.0 | 2020-11-10 | 9bedb6d68
CPXPARAM_RandomSeed                              1234
CPXPARAM_TimeLimit                               3600
Tried aggregator 2 times.
MIP Presolve eliminated 0 rows and 143 columns.
Aggregator did 47 substitutions.
Reduced MIP has 2305 rows, 4418 columns, and 13207 nonzeros.
Reduced MIP has 2256 binaries, 2162 generals, 0 SOSs, and 0 indicators.
Presolve time = 0.01 sec. (11.11 ticks)
Probing time = 0.02 sec. (4.67 ticks)
Tried aggregator 1 time.
Detecting symmetries...
Reduced MIP has 2305 rows, 4418 columns, and 13207 nonzeros.
Reduced MIP has 2256 binaries, 2162 generals, 0 SOSs, and 0 indicators.
Presolve time = 0.01 sec. (9.21 ticks)
Probing time = 0.01 sec. (4.22 ticks)
Clique table members: 96.
MIP emphasis: balance optimality and feasibility.
MIP search method: dynamic search.
Parallel mode: deterministic, using up to 8 threads.
Root relaxation solution time = 0.10 sec. (102.34 ticks)

        Nodes                                         Cuts/
   Node  Left     Objective  IInf  Best Integer    Best Bound    ItCnt     Gap

      0     0     8764.8945   120                   8764.8945     1370         
      0     0     8792.4967   140                   Cuts: 106     1748         
*     0+    0                        46210.0000     8792.4967            80.97%
      0     0     9203.5215   185    46210.0000      Cuts: 67     2260   80.08%
      0     0     9666.0214   181    46210.0000      Cuts: 56     2461   79.08%
*     0+    0                        25304.0000     9666.0214            61.80%
*     0+    0                        20528.0000     9666.0214            52.91%
*     0+    0                        20196.0000     9666.0214            52.14%
      0     0  -1.00000e+75     0    20196.0000     9666.0214     2461   52.14%
*     0+    0                        10979.0000     9666.0214            11.96%
      0     0     9667.0704   189    10979.0000      Cuts: 19     2493   11.95%
      0     0     9976.0728   186    10979.0000      Cuts: 13     2844    9.13%
Detecting symmetries...
      0     0     9978.1753   197    10979.0000      Cuts: 25     2876    9.12%
Detecting symmetries...

Repeating presolve.
Tried aggregator 1 time.
MIP Presolve eliminated 626 rows and 1266 columns.
Reduced MIP has 1679 rows, 3152 columns, and 9416 nonzeros.
Reduced MIP has 1616 binaries, 1536 generals, 0 SOSs, and 0 indicators.
Presolve time = 0.01 sec. (5.52 ticks)
Probing time = 0.00 sec. (3.44 ticks)
Cover probing fixed 0 vars, tightened 117 bounds.
Tried aggregator 1 time.
Detecting symmetries...
MIP Presolve modified 117 coefficients.
Reduced MIP has 1679 rows, 3152 columns, and 9416 nonzeros.
Reduced MIP has 1616 binaries, 1536 generals, 0 SOSs, and 0 indicators.
Presolve time = 0.01 sec. (6.43 ticks)
Represolve time = 0.04 sec. (29.50 ticks)
Probing time = 0.00 sec. (3.33 ticks)
Clique table members: 96.
MIP emphasis: balance optimality and feasibility.
MIP search method: dynamic search.
Parallel mode: deterministic, using up to 8 threads.
Root relaxation solution time = 0.09 sec. (124.15 ticks)

        Nodes                                         Cuts/
   Node  Left     Objective  IInf  Best Integer    Best Bound    ItCnt     Gap

*     0+    0                        10979.0000     9978.1753             9.12%
      0     0     9988.2410   202    10979.0000     9988.2410     4860    9.02%
      0     0     9988.2422   202    10979.0000      Cuts: 16     4875    9.02%
      0     0     9988.2483   201    10979.0000       Cuts: 7     4880    9.02%
*     0+    0                        10970.0000     9988.2483             8.95%
Detecting symmetries...
      0     2     9988.2483   176    10970.0000    10015.7892     4880    8.70%
Elapsed time = 2.11 sec. (1404.79 ticks, tree = 0.02 MB, solutions = 6)
*    10+    3                        10964.0000    10015.7892             8.65%
*    48+    5                        10811.0000    10015.7892             7.36%
    103    71    10186.6376   158    10811.0000    10015.7892    12764    7.36%
*   185+    4                        10753.0000    10015.7892             6.86%
    390   246    10185.2553   162    10753.0000    10015.7892    31801    6.86%
    813   519    10243.6778   174    10753.0000    10079.2170    62295    6.27%
   1240   852    10399.5970   143    10753.0000    10120.4303    93314    5.88%
   1733  1217    10519.6002   123    10753.0000    10126.0702   120532    5.83%
   2226  1608    10458.8987   175    10753.0000    10170.0217   151655    5.42%
   2771  2035    10562.8547   135    10753.0000    10188.4787   186503    5.25%
   3368  2404    10587.4358   151    10753.0000    10202.7451   215982    5.12%

Performing restart 1

Repeating presolve.
Tried aggregator 1 time.
MIP Presolve eliminated 281 rows and 584 columns.
Reduced MIP has 1398 rows, 2568 columns, and 7675 nonzeros.
Reduced MIP has 1313 binaries, 1255 generals, 0 SOSs, and 0 indicators.
Presolve time = 0.00 sec. (4.53 ticks)
Tried aggregator 1 time.
MIP Presolve modified 256 coefficients.
Reduced MIP has 1398 rows, 2568 columns, and 7675 nonzeros.
Reduced MIP has 1313 binaries, 1255 generals, 0 SOSs, and 0 indicators.
Presolve time = 0.01 sec. (5.41 ticks)
Represolve time = 0.05 sec. (40.42 ticks)
*  3404+    0                        10725.0000    10212.4171             4.78%
   3404     0    10348.9333   161    10725.0000      Cuts: 92   231765    3.51%
   3404     0    10380.9330   204    10725.0000     Cuts: 109   231968    3.21%

Repeating presolve.
Tried aggregator 1 time.
MIP Presolve eliminated 569 rows and 1166 columns.
MIP Presolve modified 36 coefficients.
Reduced MIP has 829 rows, 1402 columns, and 4191 nonzeros.
Reduced MIP has 716 binaries, 686 generals, 0 SOSs, and 0 indicators.
Presolve time = 0.00 sec. (2.93 ticks)
Tried aggregator 1 time.
MIP Presolve modified 252 coefficients.
Reduced MIP has 829 rows, 1402 columns, and 4191 nonzeros.
Reduced MIP has 716 binaries, 686 generals, 0 SOSs, and 0 indicators.
Presolve time = 0.00 sec. (3.03 ticks)
Represolve time = 0.03 sec. (28.39 ticks)
*  3404+    0                        10626.0000    10380.9527             2.31%
   3404     0    10472.8571   172    10626.0000      Cuts: 30   233262    1.44%
   3404     0    10532.7500   166    10626.0000     Cuts: 105   233517    0.88%
   3404     0    10534.3410   188    10626.0000     Cuts: 214   233654    0.86%
   3404     0    10563.0000   184    10626.0000      Cuts: 38   233743    0.59%
*  3404+    0                        10618.0000    10563.0000             0.52%
   3404     0    10575.0000   183    10618.0000     Cuts: 170   233895    0.40%
   3404     0    10577.4348   165    10618.0000      Cuts: 94   234032    0.38%
   3404     0    10587.2527   174    10618.0000      Cuts: 23   234113    0.29%
   3404     0    10587.2583   188    10618.0000     Cuts: 260   234315    0.29%
*  3404+    0                        10598.0000    10587.2583             0.10%

GUB cover cuts applied:  2
Cover cuts applied:  7
Implied bound cuts applied:  38
Flow cuts applied:  181
Mixed integer rounding cuts applied:  23
Zero-half cuts applied:  17
Lift and project cuts applied:  2
Gomory fractional cuts applied:  15

Root node processing (before b&c):
  Real time             =    2.10 sec. (1404.16 ticks)
Parallel b&c, 8 threads:
  Real time             =    4.29 sec. (2727.10 ticks)
  Sync time (average)   =    0.30 sec.
  Wait time (average)   =    0.00 sec.
                          ------------
Total (root+branch&cut) =    6.39 sec. (4131.26 ticks)
